SCIP version 5.0.0 [precision: 8 byte] [memory: block] [mode: optimized] [LP solver: NONE] [GitHash: 3bbd232]
Copyright (C) 2002-2017 Konrad-Zuse-Zentrum fuer Informationstechnik Berlin (ZIB)

External codes: 
  Readline EditLine w  GNU library for command line editing (gnu.org/s/readline)
  CppAD 20160000.1     Algorithmic Differentiation of C++ algorithms developed by B. Bell (www.coin-or.org/CppAD)
  ZLIB 1.2.5           General purpose compression library by J. Gailly and M. Adler (zlib.net)
  GMP 6.1.2            GNU Multiple Precision Arithmetic Library developed by T. Granlund (gmplib.org)

user parameter file <scip.set> not found - using default parameters

read problem <../../Split_data/output/biodeg/6/1_sample_biodeg.logreg>
============

File name	:	../../Split_data/output/biodeg/6/1_sample_biodeg.logreg
Problem name 	:	1_sample_biodeg
Number of data	:	844
Number of var	:	41
The given data has linear independence

[dim=1] time: 0.039558
[dim=2] time: 0.082417
[dim=3] time: 0.125529
[dim=4] time: 0.156239
[dim=5] time: 0.187728
[dim=6] time: 0.216379
[dim=7] time: 0.245037
[dim=8] time: 0.273441
[dim=9] time: 0.302183
[dim=10] time: 0.329475
[dim=11] time: 0.357539
[dim=12] time: 0.382636
[dim=13] time: 0.41197
[dim=14] time: 0.440295
[dim=15] time: 0.476951
[dim=16] time: 0.50014
[dim=17] time: 0.523628
[dim=18] time: 0.543747
[dim=19] time: 0.561622
[dim=20] time: 0.57815
[dim=21] time: 0.593981
[dim=22] time: 0.610143
[dim=23] time: 0.626135
[dim=24] Time of forward = 0.640773sec.
AIC: 530.382
k: 23

[dim=41] time: 0.139172
[dim=40] time: 0.192151
[dim=39] time: 0.231333
[dim=38] time: 0.276808
[dim=37] time: 0.324595
[dim=36] time: 0.374602
[dim=35] time: 0.468648
[dim=34] time: 0.519141
[dim=33] time: 0.558089
[dim=32] time: 0.596234
[dim=31] time: 0.633792
[dim=30] time: 0.669904
[dim=29] time: 0.701852
[dim=28] time: 0.743125
[dim=27] time: 0.803154
[dim=26] time: 0.833395
[dim=25] time: 0.861033
[dim=24] Time of backward = 0.883724sec.
AIC: 524.081
k: 25
